
Gurobi 7.0.2 (linux64, Matlab) logging started Sun Sep  2 08:55:09 2018


Gurobi 7.0.2 (linux64) logging started Sun Sep  2 08:55:09 2018

Optimize a model with 1495549 rows, 1439571 columns and 6696217 nonzeros
Coefficient statistics:
  Matrix range     [1e+00, 2e+00]
  Objective range  [1e+00, 1e+00]
  Bounds range     [1e+00, 1e+00]
  RHS range        [1e+00, 2e+00]
Iteration    Objective       Primal Inf.    Dual Inf.      Time
       0    4.4000000e+01   0.000000e+00   0.000000e+00      1s

Solved in 0 iterations and 0.83 seconds
Optimal objective  4.400000000e+01
